NAME : A-n38-k5.730.tour
COMMENT : Cost = 0_730
COMMENT : Found by LKH [Keld Helsgaun] Thu Nov  2 15:32:14 2017
TYPE : TOUR
DIMENSION : 42
TOUR_SECTION
1
9
34
36
24
31
11
22
39
27
13
4
2
5
17
26
7
30
41
10
18
37
14
16
3
15
25
42
33
23
28
12
6
8
40
19
20
35
29
32
38
21
-1
EOF
